Maximize

60 x_0 + 25 x_1 + 5 x_2 + 25 x_3 + 15 x_4 + 100 x_5


Subject To

a0: x_0 - x_1 > 1
a1: x_0 - x_2 > 1
a2: x_0 - x_3 > 1
a3: x_0 - x_4 > 1
a4: x_0 - x_5 > 1
b0: 0.5 x_0 + 0.0 x_1 + 0.0 x_2 + 0.0 x_3 + 0.0 x_4 + 0.2 x_5 <= 35
b1: 0.0 x_0 + 1.0 x_1 + 0.4 x_2 + 0.0 x_3 + 0.0 x_4 + 0.0 x_5 <= 4
b2: 0.4 x_0 + 0.0 x_1 + 0.0 x_2 + 0.0 x_3 + 0.4 x_4 + 0.0 x_5 <= 12
b3: 0.0 x_0 + 0.0 x_1 + 0.0 x_2 + 0.0 x_3 + 0.0 x_4 + 0.0 x_5 <= 5
b4: 0.0 x_0 + 0.0 x_1 + 0.0 x_2 + 0.0 x_3 + 0.0 x_4 + 0.3 x_5 <= 30
b5: 0.0 x_0 + 0.0 x_1 + 0.0 x_2 + 0.8 x_3 + 0.0 x_4 + 0.3 x_5 <= 42
b6: 0.1 x_0 + 0.0 x_1 + 0.8 x_2 + 0.0 x_3 + 0.0 x_4 + 0.0 x_5 <= 3
b7: 0.0 x_0 + 0.0 x_1 + 0.0 x_2 + 0.0 x_3 + 0.6 x_4 + 0.0 x_5 <= 2
b8: 0.0 x_0 + 0.0 x_1 + 0.0 x_2 + 0.0 x_3 + 0.0 x_4 + 0.2 x_5 <= 20
b9: 0.0 x_0 + 0.0 x_1 + 0.0 x_2 + 0.2 x_3 + 0.0 x_4 + 0.0 x_5 <= 3





General

 x_0 x_1 x_2 x_3 x_4 x_5



End
